(set-option :incremental false)
(set-logic ALL)
(declare-const BAV1 Bool)
(declare-const BAV2 Bool)
(declare-const GEN4 Int)
(declare-const GEN3 Int)
(declare-const GEN2 Int)
(declare-const GEN1 Int)
(declare-fun x () (_ BitVec 32))
(declare-fun y () (_ BitVec 32))
(declare-fun a () (Array (_ BitVec 32) (_ BitVec 8)))
(assert (not (= (store a x (_ bv0 8)) (store a x ((_ extract 7 0) y)))))
(assert (= y (_ bv0 32)))
(assert (= BAV1 (= (store a x (_ bv0 8)) (store a x ((_ extract 7 0) y)))))
(assert (= BAV2 (= y (_ bv0 32))))
(check-sat-assuming (true))
(get-model)